************************************************************************
file with basedata            : mm45_.bas
initial value random generator: 286010497
************************************************************************
projects                      :  1
jobs (incl. supersource/sink ):  12
horizon                       :  73
RESOURCES
  - renewable                 :  2   R
  - nonrenewable              :  2   N
  - doubly constrained        :  0   D
************************************************************************
PROJECT INFORMATION:
pronr.  #jobs rel.date duedate tardcost  MPM-Time
    1     10      0       15        7       15
************************************************************************
PRECEDENCE RELATIONS:
jobnr.    #modes  #successors   successors
   1        1          3           2   3   4
   2        3          3           5   6  10
   3        3          1           7
   4        3          2           8  11
   5        3          1           8
   6        3          2           7   8
   7        3          2           9  11
   8        3          1           9
   9        3          1          12
  10        3          1          12
  11        3          1          12
  12        1          0        
************************************************************************
REQUESTS/DURATIONS:
jobnr. mode duration  R 1  R 2  N 1  N 2
------------------------------------------------------------------------
  1      1     0       0    0    0    0
  2      1     1       8    3    4    9
         2     7       8    2    2    9
         3     8       7    2    1    8
  3      1     6      10    9    8    5
         2     7       8    7    7    4
         3     8       8    6    7    3
  4      1     1       6    9    7    7
         2     6       6    9    5    6
         3    10       2    9    3    3
  5      1     1       7    7    9    7
         2     6       7    5    9    6
         3     8       7    5    8    5
  6      1     3       7    6    6    7
         2     6       7    5    4    6
         3     9       5    5    3    6
  7      1     5       5    2    7    6
         2     5       4    3    7    6
         3     9       2    1    3    6
  8      1     2       3    1    8    4
         2     2       3    4    3    4
         3     2       3    3    3    5
  9      1     1       5    9    8    5
         2     2       5    8    8    4
         3     3       4    8    7    4
 10      1     5       3    8    9    9
         2     7       3    8    7    4
         3     8       2    7    7    2
 11      1     4       9    8    5    8
         2     6       9    7    4    6
         3     8       6    7    1    2
 12      1     0       0    0    0    0
************************************************************************
RESOURCEAVAILABILITIES:
  R 1  R 2  N 1  N 2
   18   20   49   48
************************************************************************
MAXIMAL LAGS:
from  to  type  delay
    1   12   ES      0
    1    2   ES      0
    2   12   ES      0
    1    3   ES      0
    3   12   ES      0
    1    4   ES      0
    4   12   ES      0
    1    5   ES      0
    5   12   ES      0
    1    6   ES      0
    6   12   ES      0
    1    7   ES      0
    7   12   ES      0
    1    8   ES      0
    8   12   ES      0
    1    9   ES      0
    9   12   ES      0
    1   10   ES      0
   10   12   ES      0
    1   11   ES      0
   11   12   ES      0
    1   12   ES      0
    2    5   SS     -3
    2    5   SE      8
    2    5   ES     -5
    2    5   EE      4
    2    6   SS     -4
    2    6   SE     -2
    2    6   ES     10
    2    6   EE      5
    2   10   SS      4
    2   10   SE     -9
    2   10   ES    -11
    2   10   EE     -1
    3    7   SS      1
    3    7   SE     10
    3    7   ES      7
    3    7   EE      3
    4    8   SS     -4
    4    8   SE    -10
    4    8   ES     -6
    4    8   EE     -8
    4   11   SS      4
    4   11   SE     -5
    4   11   ES     -3
    4   11   EE     11
    5    8   SS      5
    5    8   SE     -6
    5    8   ES     -9
    5    8   EE     -1
    6    7   SS     11
    6    7   SE     -8
    6    7   ES    -11
    6    7   EE     -5
    6    8   SS     10
    6    8   SE      2
    6    8   ES      8
    6    8   EE     12
    7    9   SS      2
    7    9   SE     -9
    7    9   ES    -12
    7    9   EE      3
    7   11   SS    -11
    7   11   SE     -4
    7   11   ES     -4
    7   11   EE      6
    8    9   SS      0
    8    9   SE     -3
    8    9   ES    -10
    8    9   EE    -11
************************************************************************
